param m := 1000;
param n := 4;
param K := 1;
param nus := 
1 0.2
;

param y := 
1 -1.0
2 -1.0
3 1.0
4 1.0
5 -1.0
6 1.0
7 1.0
8 -1.0
9 1.0
10 1.0
11 -1.0
12 -1.0
13 1.0
14 -1.0
15 -1.0
16 -1.0
17 -1.0
18 -1.0
19 -1.0
20 -1.0
21 -1.0
22 -1.0
23 1.0
24 1.0
25 1.0
26 -1.0
27 -1.0
28 -1.0
29 -1.0
30 1.0
31 1.0
32 -1.0
33 1.0
34 1.0
35 -1.0
36 1.0
37 -1.0
38 -1.0
39 1.0
40 1.0
41 -1.0
42 -1.0
43 -1.0
44 1.0
45 1.0
46 -1.0
47 -1.0
48 1.0
49 1.0
50 1.0
51 1.0
52 -1.0
53 -1.0
54 1.0
55 -1.0
56 1.0
57 -1.0
58 1.0
59 1.0
60 -1.0
61 -1.0
62 1.0
63 -1.0
64 1.0
65 -1.0
66 1.0
67 -1.0
68 -1.0
69 1.0
70 -1.0
71 -1.0
72 -1.0
73 1.0
74 -1.0
75 1.0
76 -1.0
77 -1.0
78 -1.0
79 1.0
80 1.0
81 -1.0
82 1.0
83 -1.0
84 -1.0
85 1.0
86 1.0
87 -1.0
88 1.0
89 -1.0
90 1.0
91 1.0
92 1.0
93 1.0
94 -1.0
95 -1.0
96 1.0
97 1.0
98 -1.0
99 -1.0
100 -1.0
101 -1.0
102 1.0
103 1.0
104 1.0
105 -1.0
106 -1.0
107 1.0
108 1.0
109 1.0
110 -1.0
111 1.0
112 -1.0
113 -1.0
114 -1.0
115 1.0
116 -1.0
117 -1.0
118 -1.0
119 -1.0
120 -1.0
121 1.0
122 -1.0
123 1.0
124 -1.0
125 -1.0
126 1.0
127 1.0
128 1.0
129 1.0
130 1.0
131 1.0
132 -1.0
133 -1.0
134 1.0
135 -1.0
136 -1.0
137 -1.0
138 1.0
139 -1.0
140 1.0
141 1.0
142 -1.0
143 -1.0
144 -1.0
145 -1.0
146 -1.0
147 1.0
148 1.0
149 1.0
150 1.0
151 1.0
152 1.0
153 -1.0
154 -1.0
155 -1.0
156 1.0
157 1.0
158 1.0
159 1.0
160 1.0
161 -1.0
162 -1.0
163 1.0
164 1.0
165 1.0
166 -1.0
167 1.0
168 1.0
169 -1.0
170 1.0
171 1.0
172 1.0
173 -1.0
174 -1.0
175 1.0
176 1.0
177 -1.0
178 1.0
179 1.0
180 -1.0
181 1.0
182 1.0
183 -1.0
184 -1.0
185 1.0
186 1.0
187 -1.0
188 1.0
189 -1.0
190 1.0
191 1.0
192 1.0
193 -1.0
194 -1.0
195 1.0
196 -1.0
197 1.0
198 -1.0
199 -1.0
200 -1.0
201 -1.0
202 1.0
203 1.0
204 1.0
205 -1.0
206 1.0
207 -1.0
208 1.0
209 1.0
210 -1.0
211 -1.0
212 1.0
213 -1.0
214 1.0
215 1.0
216 -1.0
217 -1.0
218 -1.0
219 -1.0
220 1.0
221 1.0
222 -1.0
223 -1.0
224 1.0
225 -1.0
226 1.0
227 -1.0
228 -1.0
229 -1.0
230 -1.0
231 -1.0
232 1.0
233 -1.0
234 1.0
235 1.0
236 -1.0
237 1.0
238 -1.0
239 -1.0
240 1.0
241 1.0
242 -1.0
243 1.0
244 1.0
245 -1.0
246 -1.0
247 -1.0
248 1.0
249 -1.0
250 1.0
251 1.0
252 -1.0
253 -1.0
254 1.0
255 -1.0
256 1.0
257 1.0
258 1.0
259 1.0
260 1.0
261 1.0
262 1.0
263 -1.0
264 -1.0
265 1.0
266 -1.0
267 -1.0
268 1.0
269 1.0
270 1.0
271 1.0
272 1.0
273 -1.0
274 1.0
275 -1.0
276 -1.0
277 1.0
278 -1.0
279 -1.0
280 -1.0
281 1.0
282 -1.0
283 -1.0
284 -1.0
285 1.0
286 -1.0
287 1.0
288 1.0
289 1.0
290 1.0
291 1.0
292 -1.0
293 -1.0
294 -1.0
295 -1.0
296 1.0
297 -1.0
298 1.0
299 -1.0
300 -1.0
301 1.0
302 -1.0
303 1.0
304 -1.0
305 -1.0
306 1.0
307 1.0
308 1.0
309 -1.0
310 -1.0
311 1.0
312 1.0
313 1.0
314 1.0
315 1.0
316 1.0
317 -1.0
318 1.0
319 1.0
320 -1.0
321 1.0
322 1.0
323 -1.0
324 1.0
325 -1.0
326 -1.0
327 1.0
328 -1.0
329 1.0
330 1.0
331 -1.0
332 1.0
333 1.0
334 1.0
335 -1.0
336 1.0
337 -1.0
338 -1.0
339 1.0
340 1.0
341 -1.0
342 -1.0
343 1.0
344 -1.0
345 1.0
346 -1.0
347 -1.0
348 1.0
349 -1.0
350 -1.0
351 -1.0
352 -1.0
353 1.0
354 1.0
355 -1.0
356 1.0
357 -1.0
358 1.0
359 1.0
360 1.0
361 1.0
362 -1.0
363 1.0
364 1.0
365 -1.0
366 1.0
367 1.0
368 -1.0
369 -1.0
370 -1.0
371 1.0
372 -1.0
373 -1.0
374 1.0
375 1.0
376 1.0
377 -1.0
378 1.0
379 -1.0
380 1.0
381 1.0
382 1.0
383 -1.0
384 -1.0
385 1.0
386 1.0
387 -1.0
388 1.0
389 1.0
390 -1.0
391 1.0
392 1.0
393 -1.0
394 -1.0
395 -1.0
396 -1.0
397 -1.0
398 -1.0
399 1.0
400 -1.0
401 1.0
402 1.0
403 1.0
404 1.0
405 1.0
406 -1.0
407 -1.0
408 1.0
409 -1.0
410 1.0
411 -1.0
412 1.0
413 1.0
414 1.0
415 1.0
416 -1.0
417 1.0
418 1.0
419 1.0
420 1.0
421 1.0
422 -1.0
423 1.0
424 1.0
425 -1.0
426 -1.0
427 1.0
428 -1.0
429 1.0
430 -1.0
431 1.0
432 -1.0
433 1.0
434 -1.0
435 -1.0
436 1.0
437 1.0
438 1.0
439 1.0
440 -1.0
441 -1.0
442 1.0
443 1.0
444 1.0
445 1.0
446 -1.0
447 -1.0
448 -1.0
449 1.0
450 -1.0
451 1.0
452 1.0
453 -1.0
454 1.0
455 -1.0
456 1.0
457 1.0
458 1.0
459 -1.0
460 1.0
461 1.0
462 1.0
463 -1.0
464 -1.0
465 -1.0
466 1.0
467 -1.0
468 1.0
469 1.0
470 -1.0
471 -1.0
472 -1.0
473 -1.0
474 -1.0
475 1.0
476 1.0
477 -1.0
478 -1.0
479 -1.0
480 -1.0
481 -1.0
482 -1.0
483 1.0
484 1.0
485 -1.0
486 1.0
487 -1.0
488 1.0
489 -1.0
490 -1.0
491 1.0
492 1.0
493 1.0
494 -1.0
495 1.0
496 -1.0
497 1.0
498 1.0
499 1.0
500 1.0
501 -1.0
502 -1.0
503 -1.0
504 1.0
505 1.0
506 1.0
507 -1.0
508 1.0
509 1.0
510 1.0
511 1.0
512 1.0
513 1.0
514 -1.0
515 1.0
516 1.0
517 -1.0
518 1.0
519 1.0
520 -1.0
521 1.0
522 1.0
523 -1.0
524 1.0
525 1.0
526 -1.0
527 -1.0
528 1.0
529 -1.0
530 1.0
531 1.0
532 -1.0
533 -1.0
534 1.0
535 1.0
536 1.0
537 -1.0
538 1.0
539 1.0
540 -1.0
541 1.0
542 -1.0
543 -1.0
544 1.0
545 1.0
546 -1.0
547 1.0
548 -1.0
549 -1.0
550 1.0
551 -1.0
552 1.0
553 -1.0
554 1.0
555 -1.0
556 -1.0
557 -1.0
558 1.0
559 -1.0
560 -1.0
561 -1.0
562 -1.0
563 1.0
564 -1.0
565 1.0
566 -1.0
567 1.0
568 1.0
569 -1.0
570 1.0
571 1.0
572 -1.0
573 -1.0
574 -1.0
575 1.0
576 1.0
577 1.0
578 1.0
579 1.0
580 1.0
581 -1.0
582 1.0
583 -1.0
584 -1.0
585 1.0
586 -1.0
587 -1.0
588 1.0
589 1.0
590 1.0
591 -1.0
592 1.0
593 -1.0
594 1.0
595 1.0
596 -1.0
597 1.0
598 1.0
599 1.0
600 -1.0
601 1.0
602 -1.0
603 -1.0
604 1.0
605 -1.0
606 -1.0
607 -1.0
608 -1.0
609 -1.0
610 -1.0
611 -1.0
612 1.0
613 1.0
614 -1.0
615 -1.0
616 1.0
617 1.0
618 1.0
619 1.0
620 -1.0
621 1.0
622 -1.0
623 -1.0
624 1.0
625 -1.0
626 1.0
627 -1.0
628 1.0
629 -1.0
630 -1.0
631 -1.0
632 1.0
633 -1.0
634 1.0
635 -1.0
636 1.0
637 -1.0
638 -1.0
639 1.0
640 1.0
641 1.0
642 -1.0
643 -1.0
644 -1.0
645 -1.0
646 -1.0
647 1.0
648 1.0
649 1.0
650 -1.0
651 -1.0
652 -1.0
653 1.0
654 -1.0
655 -1.0
656 1.0
657 1.0
658 -1.0
659 -1.0
660 -1.0
661 1.0
662 -1.0
663 -1.0
664 1.0
665 1.0
666 -1.0
667 1.0
668 1.0
669 1.0
670 -1.0
671 1.0
672 -1.0
673 1.0
674 1.0
675 -1.0
676 -1.0
677 1.0
678 1.0
679 1.0
680 -1.0
681 1.0
682 1.0
683 -1.0
684 -1.0
685 -1.0
686 1.0
687 -1.0
688 1.0
689 -1.0
690 1.0
691 1.0
692 -1.0
693 1.0
694 -1.0
695 1.0
696 -1.0
697 -1.0
698 1.0
699 1.0
700 1.0
701 -1.0
702 -1.0
703 -1.0
704 1.0
705 -1.0
706 -1.0
707 -1.0
708 -1.0
709 -1.0
710 -1.0
711 -1.0
712 -1.0
713 1.0
714 -1.0
715 1.0
716 -1.0
717 1.0
718 -1.0
719 -1.0
720 -1.0
721 1.0
722 -1.0
723 -1.0
724 1.0
725 -1.0
726 1.0
727 -1.0
728 1.0
729 1.0
730 -1.0
731 1.0
732 -1.0
733 1.0
734 -1.0
735 -1.0
736 1.0
737 -1.0
738 1.0
739 -1.0
740 -1.0
741 -1.0
742 -1.0
743 1.0
744 -1.0
745 1.0
746 1.0
747 -1.0
748 -1.0
749 1.0
750 1.0
751 -1.0
752 1.0
753 1.0
754 -1.0
755 -1.0
756 -1.0
757 -1.0
758 1.0
759 1.0
760 -1.0
761 1.0
762 -1.0
763 -1.0
764 1.0
765 -1.0
766 1.0
767 1.0
768 -1.0
769 1.0
770 1.0
771 -1.0
772 1.0
773 -1.0
774 1.0
775 -1.0
776 1.0
777 1.0
778 1.0
779 -1.0
780 1.0
781 1.0
782 -1.0
783 -1.0
784 -1.0
785 1.0
786 -1.0
787 -1.0
788 -1.0
789 1.0
790 -1.0
791 1.0
792 1.0
793 -1.0
794 -1.0
795 1.0
796 -1.0
797 1.0
798 1.0
799 -1.0
800 -1.0
801 -1.0
802 -1.0
803 -1.0
804 1.0
805 1.0
806 -1.0
807 1.0
808 1.0
809 -1.0
810 -1.0
811 1.0
812 1.0
813 -1.0
814 -1.0
815 -1.0
816 1.0
817 1.0
818 1.0
819 -1.0
820 -1.0
821 1.0
822 -1.0
823 1.0
824 -1.0
825 -1.0
826 1.0
827 -1.0
828 -1.0
829 -1.0
830 1.0
831 -1.0
832 -1.0
833 -1.0
834 -1.0
835 -1.0
836 1.0
837 1.0
838 -1.0
839 -1.0
840 1.0
841 1.0
842 -1.0
843 -1.0
844 -1.0
845 1.0
846 1.0
847 1.0
848 -1.0
849 -1.0
850 1.0
851 1.0
852 -1.0
853 1.0
854 -1.0
855 -1.0
856 -1.0
857 -1.0
858 1.0
859 1.0
860 -1.0
861 1.0
862 1.0
863 -1.0
864 1.0
865 -1.0
866 1.0
867 1.0
868 -1.0
869 -1.0
870 1.0
871 1.0
872 -1.0
873 1.0
874 1.0
875 -1.0
876 -1.0
877 -1.0
878 1.0
879 1.0
880 1.0
881 1.0
882 -1.0
883 -1.0
884 1.0
885 1.0
886 -1.0
887 1.0
888 1.0
889 -1.0
890 -1.0
891 -1.0
892 1.0
893 -1.0
894 -1.0
895 -1.0
896 -1.0
897 -1.0
898 -1.0
899 -1.0
900 -1.0
901 1.0
902 -1.0
903 -1.0
904 -1.0
905 -1.0
906 1.0
907 -1.0
908 1.0
909 1.0
910 1.0
911 1.0
912 1.0
913 1.0
914 -1.0
915 1.0
916 1.0
917 1.0
918 -1.0
919 -1.0
920 1.0
921 -1.0
922 -1.0
923 1.0
924 -1.0
925 -1.0
926 -1.0
927 1.0
928 -1.0
929 1.0
930 1.0
931 1.0
932 1.0
933 -1.0
934 -1.0
935 1.0
936 -1.0
937 1.0
938 -1.0
939 1.0
940 -1.0
941 -1.0
942 -1.0
943 1.0
944 -1.0
945 -1.0
946 1.0
947 1.0
948 1.0
949 1.0
950 -1.0
951 -1.0
952 1.0
953 1.0
954 -1.0
955 -1.0
956 1.0
957 1.0
958 -1.0
959 -1.0
960 1.0
961 -1.0
962 -1.0
963 1.0
964 1.0
965 -1.0
966 -1.0
967 -1.0
968 -1.0
969 1.0
970 -1.0
971 -1.0
972 -1.0
973 1.0
974 1.0
975 1.0
976 -1.0
977 -1.0
978 1.0
979 1.0
980 -1.0
981 1.0
982 1.0
983 -1.0
984 -1.0
985 1.0
986 -1.0
987 1.0
988 1.0
989 1.0
990 -1.0
991 1.0
992 -1.0
993 1.0
994 1.0
995 -1.0
996 -1.0
997 1.0
998 1.0
999 1.0
1000 -1.0
;

param A : 
 1 2 3 4 := 
1 0.06 0.788 0.203 0.349
2 0.135 0.376 0.259 0.044
3 0.63 0.377 0.32 0.828
4 0.487 0.791 0.955 0.714
5 0.842 0.362 0.383 0.078
6 0.88 0.219 0.969 0.793
7 0.177 0.853 0.792 0.381
8 0.153 0.515 0.577 0.413
9 0.457 0.043 0.937 0.777
10 0.362 0.263 0.662 0.317
11 0.014 0.159 0.339 0.397
12 0.513 0.277 0.456 0.482
13 0.46 0.66 0.923 0.251
14 0.124 0.405 0.555 0.701
15 0.115 0.158 0.861 0.051
16 0.732 0.413 0.198 0.393
17 0.175 0.407 0.889 0.514
18 0.127 0.027 0.081 0.583
19 0.151 0.042 0.169 0.074
20 0.209 0.197 0.699 0.764
21 0.516 0.879 0.056 0.377
22 0.991 0.109 0.344 0.188
23 0.074 0.363 0.909 0.963
24 0.713 0.09 0.904 0.794
25 0.413 0.945 0.715 0.582
26 0.009 0.791 0.216 0.708
27 0.115 0.224 0.434 0.171
28 0.365 0.162 0.71 0.709
29 0.212 0.783 0.713 0.121
30 0.59 0.835 0.836 0.494
31 0.509 0.907 0.574 0.224
32 0.592 0.233 0.279 0.808
33 0.835 0.923 0.164 0.269
34 0.765 0.634 0.256 0.475
35 0.606 0.687 0.125 0.319
36 0.871 0.909 0.643 0.706
37 0.272 0.215 0.309 0.846
38 0.797 0.438 0.671 0.077
39 0.612 0.912 0.17 0.776
40 0.264 0.541 0.814 0.519
41 0.156 0.125 0.704 0.281
42 0.513 0.152 0.352 0.156
43 0.755 0.428 0.073 0.063
44 0.512 0.861 0.712 0.183
45 0.959 0.795 0.849 0.129
46 0.03 0.392 0.112 0.844
47 0.129 1.0 0.037 0.833
48 0.481 0.346 0.433 0.833
49 0.291 0.588 0.93 0.364
50 0.204 0.876 0.512 0.917
51 0.45 0.876 0.854 0.299
52 0.425 0.329 0.397 0.537
53 0.309 0.666 0.173 0.346
54 0.454 0.826 0.845 0.887
55 0.347 0.178 0.248 0.277
56 0.899 0.482 0.418 0.411
57 0.478 0.861 0.274 0.332
58 0.279 0.757 0.489 0.676
59 0.662 0.985 0.96 0.835
60 0.459 0.289 0.157 0.303
61 0.816 0.65 0.353 0.064
62 0.895 0.963 0.408 0.313
63 0.807 0.791 0.235 0.081
64 0.396 0.36 0.88 0.885
65 0.174 0.547 0.02 0.134
66 0.351 0.592 0.671 0.507
67 0.847 0.324 0.545 0.2
68 0.472 0.095 0.351 0.881
69 0.726 0.687 0.199 0.961
70 0.322 0.357 0.128 0.202
71 0.164 0.376 0.79 0.185
72 0.172 0.535 0.102 0.843
73 0.998 0.69 0.367 0.543
74 0.755 0.015 0.984 0.106
75 0.392 0.832 0.583 0.591
76 0.351 0.913 0.15 0.479
77 0.392 0.644 0.491 0.181
78 0.001 0.353 0.363 0.103
79 0.406 0.101 0.886 0.773
80 0.776 0.528 0.658 0.76
81 0.553 0.152 0.466 0.136
82 0.258 0.487 0.656 0.408
83 0.771 0.799 0.61 0.262
84 0.439 0.263 0.334 0.802
85 0.531 0.208 0.467 0.418
86 0.11 0.193 0.509 0.768
87 0.143 0.322 0.105 0.608
88 0.847 0.867 0.945 0.503
89 0.912 0.274 0.074 0.522
90 0.055 0.961 0.799 0.389
91 0.166 0.92 0.971 0.632
92 0.952 0.743 0.531 0.461
93 0.484 0.604 0.833 0.589
94 0.291 0.436 0.079 0.236
95 0.353 0.148 0.213 0.427
96 0.75 0.482 0.63 0.549
97 0.393 0.715 0.791 0.364
98 0.129 0.316 0.09 0.66
99 0.601 0.144 0.381 0.434
100 0.593 0.725 0.168 0.672
101 0.108 0.025 0.108 0.321
102 0.778 0.071 0.934 0.408
103 0.805 0.801 0.335 0.596
104 0.682 0.725 0.481 0.772
105 0.258 0.373 0.529 0.639
106 0.261 0.232 0.531 0.429
107 0.492 0.537 0.93 0.6
108 0.382 0.378 0.929 0.317
109 0.549 0.122 0.588 0.884
110 0.753 0.566 0.444 0.233
111 0.828 0.491 0.711 0.357
112 0.518 0.618 0.362 0.049
113 0.266 0.541 0.584 0.196
114 0.443 0.578 0.52 0.372
115 0.306 0.921 0.017 0.894
116 0.735 0.646 0.372 0.178
117 0.71 0.007 0.371 0.421
118 0.501 0.938 0.982 0.863
119 0.029 0.129 0.529 0.613
120 0.67 0.056 0.902 0.19
121 0.797 0.496 0.349 0.813
122 0.154 0.548 0.035 0.526
123 0.915 0.235 0.733 0.286
124 0.097 0.786 0.594 0.079
125 0.582 0.108 0.778 0.11
126 0.102 0.78 0.777 0.004
127 0.204 0.801 0.466 0.553
128 0.855 0.707 0.162 0.89
129 0.888 0.805 0.468 0.622
130 0.124 0.719 0.877 0.718
131 0.526 0.3 0.906 0.304
132 0.627 0.405 0.191 0.404
133 0.161 0.609 0.21 0.627
134 0.824 0.482 0.869 0.986
135 0.102 0.874 0.177 0.571
136 0.268 0.695 0.215 0.145
137 0.013 0.672 0.713 0.919
138 0.124 0.546 0.381 0.315
139 0.79 0.476 0.56 0.0
140 0.722 0.824 0.584 0.591
141 0.956 0.694 0.683 0.134
142 0.179 0.402 0.959 0.393
143 0.372 0.406 0.219 0.086
144 0.194 0.21 0.872 0.575
145 0.823 0.365 0.0 0.382
146 0.103 0.104 0.189 0.687
147 0.998 0.643 0.389 0.681
148 0.653 0.86 0.178 0.612
149 0.725 0.985 0.66 0.944
150 0.985 0.138 0.28 0.857
151 0.805 0.679 0.077 0.805
152 0.442 0.907 0.166 0.631
153 0.861 0.629 0.238 0.251
154 0.014 0.904 0.17 0.193
155 0.423 0.918 0.501 0.083
156 0.572 0.067 0.999 0.852
157 0.712 0.657 0.603 0.789
158 0.665 0.23 0.369 0.831
159 0.963 0.692 0.489 0.201
160 0.799 0.215 0.847 0.969
161 0.363 0.392 0.326 0.864
162 0.188 0.436 0.542 0.187
163 0.466 0.899 0.945 0.069
164 0.406 0.734 0.918 0.775
165 0.779 0.738 0.257 0.268
166 0.2 0.068 0.153 0.046
167 0.561 0.409 0.428 0.887
168 0.903 0.075 0.71 0.445
169 0.998 0.911 0.161 0.942
170 0.848 0.348 0.714 0.766
171 0.279 0.545 0.86 0.536
172 0.799 0.736 0.881 0.952
173 0.917 0.513 0.191 0.345
174 0.465 0.248 0.474 0.175
175 0.736 0.172 0.603 0.896
176 0.583 0.744 0.463 0.297
177 0.586 0.576 0.055 0.446
178 0.868 0.245 0.848 0.749
179 0.63 0.666 0.71 0.821
180 0.109 0.286 0.259 0.584
181 0.951 0.32 0.633 0.554
182 0.748 0.137 0.96 0.212
183 0.471 0.798 0.011 0.526
184 0.123 0.394 0.489 0.97
185 0.686 0.6 0.808 0.396
186 0.819 0.505 0.708 0.078
187 0.169 0.029 0.409 0.802
188 0.625 0.55 0.721 0.585
189 0.155 0.056 0.559 0.166
190 0.804 0.288 0.976 0.293
191 0.118 0.979 0.859 0.926
192 0.281 0.745 0.881 0.988
193 0.97 0.157 0.852 0.378
194 0.435 0.003 0.509 0.156
195 0.271 0.311 0.645 0.83
196 0.227 0.634 0.765 0.202
197 0.024 0.32 0.906 0.883
198 0.281 0.163 0.992 0.162
199 0.815 0.131 0.308 0.667
200 0.267 0.102 0.513 0.776
201 0.102 0.047 0.569 0.746
202 0.046 0.973 0.512 0.811
203 0.439 0.835 0.496 0.345
204 0.742 0.626 0.881 0.734
205 0.032 0.549 0.919 0.341
206 0.428 0.608 0.318 0.941
207 0.577 0.043 0.432 0.146
208 0.309 0.192 0.762 0.821
209 0.938 0.26 0.838 0.433
210 0.556 0.175 0.23 0.436
211 0.017 0.468 0.459 0.936
212 0.675 0.364 0.417 0.993
213 0.801 0.569 0.349 0.233
214 0.138 0.542 0.908 0.901
215 0.911 0.838 0.623 0.749
216 0.227 0.305 0.447 0.457
217 0.357 0.474 0.209 0.815
218 0.018 0.49 0.774 0.435
219 0.08 0.237 0.052 0.428
220 0.768 0.567 0.012 0.675
221 0.375 0.587 0.306 0.998
222 0.577 0.224 0.64 0.024
223 0.381 0.381 0.155 0.591
224 0.565 0.609 0.686 0.339
225 0.169 0.418 0.28 0.221
226 0.75 0.989 0.413 0.762
227 0.88 0.137 0.251 0.186
228 0.586 0.764 0.359 0.227
229 0.04 0.608 0.169 0.195
230 0.365 0.76 0.808 0.051
231 0.851 0.22 0.516 0.132
232 0.362 0.882 0.43 0.775
233 0.094 0.656 0.78 0.344
234 0.914 0.931 0.606 0.273
235 0.394 0.313 0.766 0.563
236 0.965 0.928 0.267 0.772
237 0.365 0.624 0.2 0.881
238 0.641 0.244 0.638 0.07
239 0.281 0.164 0.675 0.061
240 0.517 0.976 0.439 0.122
241 0.596 0.516 0.562 0.362
242 0.069 0.327 0.007 0.337
243 0.987 0.702 0.723 0.186
244 0.479 0.827 0.827 0.117
245 0.846 0.398 0.06 0.521
246 0.568 0.038 0.435 0.007
247 0.684 0.604 0.676 0.246
248 0.755 0.315 0.293 0.762
249 0.393 0.748 0.354 0.116
250 0.937 0.595 0.761 0.764
251 0.658 0.61 0.109 0.718
252 0.568 0.287 0.168 0.003
253 0.328 0.687 0.898 0.004
254 0.864 0.759 0.247 0.157
255 0.899 0.549 0.269 0.252
256 0.203 0.189 0.259 0.964
257 0.971 0.622 0.563 0.079
258 0.693 0.647 0.628 0.862
259 0.922 0.19 0.337 0.819
260 0.269 0.683 0.952 0.516
261 0.472 0.415 0.388 0.741
262 0.053 0.944 0.856 0.313
263 0.809 0.283 0.531 0.372
264 0.871 0.066 0.01 0.499
265 0.661 0.42 0.117 0.998
266 0.31 0.267 0.922 0.263
267 0.762 0.735 0.198 0.15
268 0.866 0.203 0.42 0.722
269 0.328 0.531 0.8 0.859
270 0.163 0.73 0.969 0.173
271 0.896 0.834 0.65 0.013
272 0.889 0.324 0.099 0.812
273 0.882 0.573 0.321 0.08
274 0.797 0.945 0.927 0.217
275 0.443 0.545 0.199 0.243
276 0.102 0.406 0.134 0.071
277 0.364 0.968 0.413 0.013
278 0.244 0.903 0.304 0.343
279 0.891 0.225 0.287 0.212
280 0.01 0.009 0.25 0.937
281 0.917 0.38 0.771 0.116
282 0.175 0.219 0.028 0.309
283 0.607 0.673 0.258 0.02
284 0.239 0.264 0.589 0.543
285 0.303 0.434 0.832 0.59
286 0.136 0.6 0.654 0.386
287 0.88 0.304 0.917 0.65
288 0.54 0.825 0.639 0.569
289 0.929 0.176 0.808 0.187
290 0.494 0.426 0.46 0.083
291 0.067 0.386 0.403 0.899
292 0.048 0.035 0.577 0.703
293 0.114 0.582 0.725 0.031
294 0.145 0.571 0.058 0.784
295 0.193 0.713 0.316 0.001
296 0.512 0.495 0.325 0.972
297 0.295 0.039 0.965 0.698
298 0.941 0.746 0.973 0.518
299 0.395 0.632 0.031 0.12
300 0.263 0.266 0.234 0.321
301 0.374 0.514 0.763 0.69
302 0.662 0.202 0.011 0.988
303 0.59 0.282 0.213 0.555
304 0.151 0.496 0.726 0.124
305 0.175 0.519 0.645 0.205
306 0.308 0.469 0.906 0.542
307 0.955 0.917 0.305 0.718
308 0.82 0.38 0.809 0.831
309 0.982 0.42 0.651 0.195
310 0.631 0.346 0.471 0.357
311 0.484 0.531 0.989 0.129
312 0.629 0.438 0.205 0.534
313 0.996 0.49 0.897 0.3
314 0.504 0.12 0.588 0.312
315 0.956 0.295 0.371 0.607
316 0.346 0.237 0.835 0.817
317 0.305 0.301 0.125 0.294
318 0.862 0.923 0.868 0.067
319 0.848 0.062 0.947 0.745
320 0.155 0.249 0.483 0.742
321 0.434 0.698 0.856 0.805
322 0.346 0.151 0.542 0.181
323 0.136 0.486 0.27 0.261
324 0.7 0.123 0.703 0.569
325 0.16 0.417 0.252 0.107
326 0.615 0.262 0.412 0.098
327 0.973 0.531 0.703 0.83
328 0.008 0.176 0.488 0.55
329 0.456 0.686 0.843 0.725
330 0.623 0.426 0.07 0.326
331 0.26 0.486 0.411 0.512
332 0.574 0.127 0.855 0.986
333 0.859 0.959 0.755 0.561
334 0.092 0.569 0.964 0.579
335 0.32 0.035 0.805 0.163
336 0.752 0.786 0.186 0.822
337 0.18 0.082 0.597 0.592
338 0.19 0.166 0.72 0.045
339 0.945 0.904 0.11 0.7
340 0.898 0.792 0.034 0.862
341 0.153 0.183 0.406 0.958
342 0.166 0.71 0.131 0.352
343 0.243 0.533 0.613 0.84
344 0.207 0.03 0.29 0.927
345 0.442 0.871 0.978 0.552
346 0.444 0.45 0.363 0.478
347 0.734 0.631 0.496 0.139
348 0.841 0.305 0.299 0.973
349 0.83 0.215 0.19 0.444
350 0.315 0.65 0.085 0.605
351 0.159 0.047 0.449 0.137
352 0.02 0.581 0.05 0.383
353 0.362 0.117 0.69 0.858
354 0.279 0.699 0.562 0.578
355 0.219 0.408 0.888 0.41
356 0.943 0.725 0.502 0.027
357 0.079 0.187 0.377 0.528
358 0.976 0.548 0.905 0.026
359 0.964 0.388 0.048 0.654
360 0.304 0.933 0.946 0.866
361 0.618 0.085 0.919 0.506
362 0.771 0.449 0.219 0.273
363 0.549 0.352 0.663 0.927
364 0.987 0.903 0.428 0.892
365 0.359 0.856 0.318 0.406
366 0.564 0.71 0.443 0.51
367 0.953 0.128 0.661 0.872
368 0.156 0.643 0.083 0.375
369 0.56 0.924 0.268 0.223
370 0.148 0.21 0.754 0.576
371 0.683 0.934 0.957 0.001
372 0.467 0.565 0.051 0.91
373 0.627 0.863 0.203 0.288
374 0.837 0.444 0.379 0.921
375 0.295 0.48 0.742 0.563
376 0.593 0.711 0.913 0.347
377 0.014 0.03 0.221 0.971
378 0.562 0.438 0.595 0.613
379 0.67 0.24 0.211 0.873
380 0.946 0.71 0.972 0.325
381 0.79 0.62 0.111 0.533
382 0.814 0.126 0.893 0.727
383 0.179 0.741 0.502 0.4
384 0.533 0.962 0.151 0.128
385 0.498 0.798 0.814 0.709
386 0.343 0.655 0.38 0.314
387 0.011 0.105 0.6 0.122
388 0.782 0.937 0.763 0.675
389 0.236 0.855 0.405 0.738
390 0.117 0.271 0.216 0.268
391 0.791 0.766 0.196 0.605
392 0.867 0.947 0.131 0.247
393 0.111 0.258 0.366 0.711
394 0.004 0.493 0.317 0.767
395 0.981 0.003 0.023 0.385
396 0.277 0.502 0.012 0.493
397 0.411 0.284 0.537 0.607
398 0.012 0.474 0.836 0.143
399 0.098 0.254 0.979 0.465
400 0.359 0.468 0.458 0.676
401 0.626 0.656 0.238 0.649
402 0.979 0.926 0.544 0.991
403 0.314 0.402 0.704 0.851
404 0.593 0.863 0.483 0.429
405 0.203 0.527 0.261 0.182
406 0.226 0.541 0.46 0.684
407 0.696 0.311 0.873 0.934
408 0.915 0.913 0.886 0.459
409 0.305 0.774 0.306 0.009
410 0.316 0.602 0.488 0.798
411 0.495 0.002 0.558 0.755
412 0.549 0.981 0.725 0.009
413 0.942 0.705 0.976 0.815
414 0.936 0.73 0.552 0.822
415 0.456 0.127 0.963 0.762
416 0.588 0.078 0.738 0.076
417 0.769 0.571 0.878 0.326
418 0.062 0.876 0.308 0.786
419 0.973 0.728 0.59 0.95
420 0.229 0.886 0.274 0.781
421 0.463 0.237 0.835 0.427
422 0.971 0.015 0.077 0.709
423 0.953 0.478 0.662 0.831
424 0.988 0.892 0.679 0.296
425 0.564 0.269 0.407 0.155
426 0.95 0.383 0.104 0.224
427 0.812 0.687 0.4 0.647
428 0.399 0.618 0.128 0.476
429 0.219 0.429 0.804 0.881
430 0.608 0.869 0.152 0.288
431 0.831 0.852 0.433 0.238
432 0.652 0.188 0.39 0.756
433 0.554 0.568 0.099 0.954
434 0.213 0.354 0.832 0.341
435 0.159 0.56 0.258 0.964
436 0.518 0.572 0.31 0.67
437 0.474 0.501 0.712 0.908
438 0.719 0.56 0.927 0.109
439 0.339 0.663 0.884 0.438
440 0.099 0.651 0.971 0.931
441 0.801 0.09 0.552 0.059
442 0.994 0.577 0.626 0.304
443 0.486 0.778 0.748 0.198
444 0.487 0.917 0.245 0.414
445 0.561 0.753 0.689 0.445
446 0.307 0.544 0.841 0.278
447 0.833 0.079 0.565 0.385
448 0.619 0.379 0.715 0.245
449 0.963 0.731 0.46 0.711
450 0.145 0.199 0.846 0.39
451 0.873 0.951 0.365 0.562
452 0.556 0.869 0.94 0.397
453 0.415 0.229 0.226 0.98
454 0.364 0.599 0.993 0.08
455 0.675 0.042 0.576 0.135
456 0.505 0.28 0.952 0.352
457 0.565 0.225 0.621 0.93
458 0.017 0.486 0.656 0.957
459 0.803 0.371 0.112 0.029
460 0.726 0.394 0.951 0.719
461 0.795 0.394 0.515 0.371
462 0.269 0.877 0.809 0.221
463 0.479 0.786 0.453 0.1
464 0.24 0.117 0.201 0.896
465 0.084 0.699 0.445 0.195
466 0.796 0.921 0.122 0.747
467 0.595 0.542 0.034 0.11
468 0.562 0.379 0.79 0.371
469 0.019 0.85 0.387 0.472
470 0.103 0.711 0.068 0.304
471 0.142 0.388 0.306 0.587
472 0.034 0.383 0.504 0.156
473 0.144 0.751 0.672 0.177
474 0.586 0.74 0.24 0.376
475 0.841 0.394 0.962 0.228
476 0.912 0.33 0.577 0.981
477 0.185 0.123 0.022 0.491
478 0.604 0.525 0.093 0.108
479 0.223 0.252 0.432 0.896
480 0.293 0.481 0.169 0.534
481 0.28 0.375 0.251 0.242
482 0.117 0.154 0.932 0.695
483 0.567 0.879 0.257 0.588
484 0.967 0.193 0.895 0.06
485 0.576 0.284 0.553 0.008
486 0.983 0.301 0.661 0.152
487 0.517 0.432 0.209 0.769
488 0.812 0.886 0.828 0.744
489 0.963 0.311 0.459 0.221
490 0.829 0.188 0.092 0.724
491 0.393 0.3 0.532 0.946
492 0.711 0.929 0.61 0.371
493 0.444 0.889 0.513 0.654
494 0.187 0.465 0.543 0.015
495 0.124 0.979 0.52 0.583
496 0.419 0.412 0.387 0.511
497 0.635 0.904 0.437 0.166
498 0.745 0.877 0.779 0.355
499 0.86 0.799 0.137 0.373
500 0.795 0.56 0.918 0.338
501 0.127 0.462 0.554 0.647
502 0.753 0.066 0.457 0.14
503 0.594 0.775 0.481 0.031
504 0.332 0.776 0.818 0.111
505 0.067 0.971 0.929 0.205
506 0.382 1.0 0.905 0.3
507 0.48 0.427 0.8 0.034
508 0.845 0.788 0.14 0.302
509 0.718 0.896 0.703 0.199
510 0.644 0.531 0.702 0.462
511 0.832 0.529 0.614 0.762
512 0.958 0.144 0.733 0.863
513 0.071 0.343 0.871 0.871
514 0.945 0.715 0.164 0.085
515 0.092 0.802 0.913 0.795
516 0.839 0.438 0.532 0.541
517 0.175 0.373 0.43 0.788
518 0.164 0.746 0.279 0.897
519 0.723 0.968 0.952 0.593
520 0.329 0.538 0.554 0.493
521 0.572 0.585 0.425 0.485
522 0.427 0.324 0.818 0.959
523 0.718 0.134 0.238 0.148
524 0.374 0.311 0.669 0.653
525 0.278 0.376 0.177 0.229
526 0.016 0.558 0.507 0.57
527 0.13 0.142 0.636 0.555
528 0.015 0.982 0.95 0.833
529 0.815 0.551 0.074 0.053
530 0.997 0.426 0.01 0.665
531 0.219 0.943 0.455 0.395
532 0.424 0.411 0.73 0.931
533 0.781 0.061 0.122 0.416
534 0.748 0.432 0.597 0.698
535 0.538 0.513 0.815 0.612
536 0.514 0.609 0.992 0.524
537 0.071 0.743 0.217 0.526
538 0.389 0.949 0.549 0.119
539 0.529 0.9 0.941 0.651
540 0.556 0.4 0.748 0.154
541 0.012 0.692 0.611 0.828
542 0.177 0.342 0.913 0.169
543 0.188 0.24 0.609 0.405
544 0.747 0.794 0.714 0.296
545 0.594 0.825 0.813 0.535
546 0.13 0.092 0.876 0.878
547 0.975 0.89 0.937 0.586
548 0.241 0.762 0.059 0.155
549 0.925 0.342 0.171 0.534
550 0.936 0.281 0.541 0.65
551 0.454 0.245 0.401 0.268
552 0.878 0.398 0.871 0.754
553 0.116 0.728 0.165 0.053
554 0.883 0.295 0.077 0.942
555 0.008 0.867 0.792 0.178
556 0.539 0.114 0.682 0.08
557 0.258 0.534 0.009 0.659
558 0.788 0.537 0.199 0.659
559 0.474 0.776 0.019 0.64
560 0.334 0.522 0.124 0.41
561 0.573 0.418 0.33 0.365
562 0.731 0.903 0.71 0.413
563 0.475 0.671 0.517 0.483
564 0.318 0.272 0.867 0.518
565 0.158 0.992 0.707 0.178
566 0.536 0.511 0.154 0.66
567 0.617 0.233 0.339 0.948
568 0.936 0.679 0.501 0.646
569 0.484 0.121 0.762 0.001
570 0.092 0.319 0.876 0.96
571 0.807 0.118 0.829 0.514
572 0.46 0.05 0.806 0.614
573 0.728 0.231 0.944 0.067
574 0.542 0.002 0.858 0.044
575 0.95 0.528 0.769 0.712
576 0.373 0.804 0.848 0.248
577 0.685 0.055 0.882 0.514
578 0.177 0.974 0.62 0.983
579 0.33 0.711 0.819 0.274
580 0.999 0.816 0.781 0.857
581 0.429 0.806 0.388 0.198
582 0.916 0.571 0.323 0.764
583 0.087 0.449 0.875 0.969
584 0.444 0.146 0.936 0.063
585 0.524 0.394 0.84 0.344
586 0.618 0.342 0.484 0.399
587 0.344 0.828 0.005 0.732
588 0.524 0.648 0.597 0.847
589 0.416 0.934 0.861 0.29
590 0.823 0.734 0.048 0.76
591 0.177 0.284 0.191 0.018
592 0.859 0.636 0.97 0.344
593 0.169 0.688 0.863 0.175
594 0.888 0.698 0.068 0.485
595 0.48 0.901 0.479 0.341
596 0.382 0.164 0.926 0.43
597 0.723 0.607 0.209 0.915
598 0.837 0.774 0.261 0.807
599 0.296 0.976 0.805 0.158
600 0.225 0.047 0.849 0.293
601 0.394 0.773 0.432 0.874
602 0.624 0.255 0.278 0.549
603 0.203 0.273 0.293 0.411
604 0.918 0.248 0.962 0.179
605 0.08 0.474 0.031 0.885
606 0.181 0.11 0.679 0.03
607 0.21 0.425 0.176 0.643
608 0.29 0.266 0.554 0.569
609 0.24 0.771 0.088 0.532
610 0.276 0.45 0.43 0.238
611 0.485 0.317 0.103 0.516
612 0.736 0.697 0.312 0.415
613 0.715 0.625 0.152 0.892
614 0.451 0.182 0.535 0.005
615 0.35 0.245 0.522 0.439
616 0.704 0.715 0.227 0.134
617 0.857 0.619 0.27 0.96
618 0.472 0.696 0.832 0.785
619 0.56 0.5 0.736 0.712
620 0.004 0.163 0.573 0.539
621 0.324 0.889 0.413 0.845
622 0.19 0.549 0.043 0.417
623 0.995 0.274 0.303 0.265
624 0.438 0.737 0.93 0.27
625 0.04 0.83 0.022 0.776
626 0.414 0.78 0.706 0.987
627 0.874 0.311 0.208 0.287
628 0.536 0.476 0.705 0.579
629 0.389 0.574 0.167 0.692
630 0.401 0.13 0.577 0.33
631 0.099 0.371 0.231 0.121
632 0.773 0.535 0.927 0.479
633 0.246 0.352 0.834 0.455
634 0.989 0.991 0.115 0.695
635 0.009 0.083 0.144 0.176
636 0.983 0.577 0.905 0.56
637 0.306 0.659 0.278 0.536
638 0.425 0.309 0.316 0.352
639 0.838 0.599 0.14 0.672
640 0.779 0.661 0.044 0.894
641 0.614 0.903 0.439 0.758
642 0.214 0.741 0.656 0.119
643 0.564 0.425 0.96 0.842
644 0.74 0.267 0.27 0.056
645 0.058 0.894 0.218 0.198
646 0.271 0.977 0.228 0.315
647 0.584 0.928 0.774 0.023
648 0.853 0.237 0.427 0.509
649 0.728 0.072 0.782 0.687
650 0.743 0.428 0.181 0.013
651 0.8 0.07 0.378 0.018
652 0.945 0.288 0.245 0.173
653 0.115 0.757 0.531 0.889
654 0.217 0.742 0.017 0.644
655 0.374 0.372 0.323 0.156
656 0.237 0.898 0.487 0.418
657 0.971 0.218 0.982 0.349
658 0.25 0.294 0.524 0.494
659 0.127 0.609 0.223 0.659
660 0.003 0.876 0.24 0.02
661 0.49 0.394 0.891 0.813
662 0.95 0.05 0.449 0.437
663 0.36 0.408 0.687 0.341
664 0.922 0.591 0.051 0.446
665 0.518 0.574 0.695 0.741
666 0.193 0.745 0.108 0.433
667 0.628 0.923 0.16 0.519
668 0.71 0.47 0.787 0.158
669 0.256 0.518 0.315 0.942
670 0.073 0.865 0.451 0.124
671 0.536 0.642 0.885 0.23
672 0.117 0.423 0.128 0.225
673 0.893 0.853 0.779 0.053
674 0.516 0.762 0.842 0.303
675 0.75 0.559 0.439 0.065
676 0.299 0.137 0.366 0.75
677 0.677 0.285 0.903 0.562
678 0.287 0.678 0.939 0.415
679 0.795 0.308 0.757 0.574
680 0.129 0.09 0.123 0.972
681 0.044 0.721 0.952 0.483
682 0.453 0.782 0.924 0.819
683 0.185 0.496 0.817 0.088
684 0.332 0.375 0.736 0.271
685 0.639 0.066 0.097 0.396
686 0.458 0.525 0.731 0.581
687 0.125 0.625 0.218 0.077
688 0.004 0.53 0.889 0.928
689 0.421 0.113 0.844 0.237
690 0.901 0.57 0.576 0.637
691 0.366 0.276 0.908 0.463
692 0.548 0.921 0.197 0.28
693 0.693 0.404 0.127 0.912
694 0.235 0.916 0.011 0.124
695 0.359 0.545 0.957 0.204
696 0.158 0.105 0.352 0.735
697 0.193 0.1 0.018 0.1
698 0.69 0.649 0.485 0.887
699 0.987 0.58 0.332 0.114
700 0.813 0.349 0.408 0.824
701 0.252 0.183 0.018 0.209
702 0.8 0.367 0.492 0.152
703 0.234 0.345 0.202 0.252
704 0.765 0.942 0.094 0.25
705 0.022 0.238 0.409 0.354
706 0.901 0.167 0.701 0.308
707 0.174 0.56 0.174 0.192
708 0.561 0.993 0.136 0.053
709 0.237 0.287 0.489 0.439
710 0.934 0.204 0.48 0.027
711 0.309 0.049 0.692 0.718
712 0.044 0.618 0.57 0.745
713 0.562 0.92 0.487 0.736
714 0.255 0.297 0.105 0.391
715 0.249 0.628 0.637 0.738
716 0.175 0.672 0.271 0.656
717 0.726 0.964 0.748 0.418
718 0.152 0.462 0.301 0.722
719 0.227 0.284 0.128 0.714
720 0.24 0.97 0.317 0.345
721 0.667 0.594 0.989 0.304
722 0.055 0.479 0.004 0.326
723 0.703 0.052 0.099 0.452
724 0.781 0.604 0.933 0.081
725 0.141 0.309 0.609 0.268
726 0.629 0.508 0.993 0.945
727 0.353 0.612 0.447 0.342
728 0.779 0.397 0.395 0.783
729 0.529 0.487 0.776 0.628
730 0.246 0.408 0.542 0.178
731 0.867 0.319 0.799 0.477
732 0.822 0.105 0.096 0.814
733 0.949 0.168 0.663 0.396
734 0.579 0.175 0.907 0.973
735 0.63 0.502 0.445 0.406
736 0.384 0.651 0.538 0.925
737 0.028 0.793 0.149 0.827
738 0.736 0.648 0.375 0.832
739 0.426 0.781 0.63 0.088
740 0.14 0.667 0.353 0.046
741 0.311 0.676 0.142 0.756
742 0.272 0.14 0.733 0.81
743 0.563 0.838 0.858 0.711
744 0.128 0.447 0.312 0.503
745 0.775 0.928 0.06 0.405
746 0.237 0.545 0.684 0.59
747 0.324 0.901 0.267 0.466
748 0.349 0.738 0.797 0.082
749 0.863 0.645 0.386 0.721
750 0.05 0.849 0.803 0.362
751 0.082 0.137 0.281 0.142
752 0.297 0.379 0.087 0.981
753 0.678 0.305 0.87 0.945
754 0.527 0.294 0.51 0.324
755 0.058 0.187 0.02 0.443
756 0.376 0.493 0.758 0.179
757 0.11 0.261 0.992 0.39
758 0.534 0.688 0.781 0.621
759 0.75 0.299 0.974 0.619
760 0.746 0.146 0.537 0.256
761 0.913 0.313 0.658 0.934
762 0.567 0.31 0.249 0.324
763 0.104 0.434 0.75 0.096
764 0.152 0.63 0.512 0.934
765 0.181 0.684 0.549 0.155
766 0.793 0.901 0.45 0.33
767 0.921 0.243 0.47 0.579
768 0.226 0.145 0.487 0.475
769 0.975 0.578 0.903 0.725
770 0.727 0.878 0.304 0.239
771 0.554 0.42 0.495 0.104
772 0.798 0.897 0.475 0.248
773 0.632 0.168 0.47 0.101
774 0.647 0.327 0.892 0.134
775 0.362 0.109 0.38 0.265
776 0.054 0.992 0.712 0.358
777 0.523 0.912 0.651 0.018
778 0.225 0.817 0.912 0.701
779 0.139 0.333 0.233 0.609
780 0.98 0.256 0.761 0.872
781 0.563 0.234 0.5 0.943
782 0.334 0.997 0.491 0.046
783 0.722 0.57 0.267 0.373
784 0.282 0.598 0.405 0.194
785 0.469 0.334 0.632 0.703
786 0.066 0.683 0.199 0.827
787 0.59 0.39 0.789 0.089
788 0.288 0.423 0.33 0.778
789 0.684 0.5 0.039 0.951
790 0.627 0.233 0.471 0.032
791 0.771 0.501 0.761 0.402
792 0.704 0.469 0.887 0.903
793 0.442 0.493 0.686 0.231
794 0.019 0.518 0.005 0.349
795 0.475 0.033 0.797 0.514
796 0.67 0.141 0.217 0.141
797 0.645 0.912 0.674 0.406
798 0.878 0.11 0.783 0.765
799 0.079 0.207 0.506 0.765
800 0.088 0.784 0.956 0.093
801 0.253 0.567 0.166 0.05
802 0.151 0.72 0.222 0.368
803 0.395 0.013 0.774 0.069
804 0.088 0.948 0.528 0.871
805 0.541 0.95 0.92 0.047
806 0.358 0.134 0.499 0.314
807 0.632 0.567 0.794 0.798
808 0.876 0.949 0.338 0.098
809 0.2 0.493 0.33 0.973
810 0.748 0.061 0.51 0.277
811 0.223 0.818 0.882 0.143
812 0.597 0.501 0.998 0.096
813 0.225 0.728 0.382 0.019
814 1.0 0.895 0.475 0.338
815 0.792 0.537 0.485 0.122
816 0.047 0.871 0.572 0.557
817 0.504 0.78 0.965 0.386
818 0.829 0.983 0.423 0.828
819 0.238 0.053 0.806 0.62
820 0.332 0.62 0.967 0.807
821 0.96 0.599 0.494 0.445
822 0.005 0.492 0.592 0.577
823 0.739 0.08 0.829 0.704
824 0.751 0.534 0.449 0.174
825 0.527 0.412 0.414 0.333
826 0.486 0.665 0.651 0.453
827 0.608 0.413 0.071 0.103
828 0.793 0.107 0.349 0.385
829 0.398 0.124 0.764 0.227
830 0.231 0.978 0.362 0.68
831 0.724 0.207 0.564 0.138
832 0.595 0.624 0.206 0.246
833 0.678 0.855 0.49 0.749
834 0.347 0.542 0.065 0.697
835 0.749 0.095 0.051 0.513
836 0.88 0.744 0.3 0.242
837 0.452 0.966 0.63 0.016
838 0.171 0.612 0.728 0.377
839 0.805 0.054 0.713 0.294
840 0.67 0.641 0.345 0.735
841 0.272 0.483 0.433 0.323
842 0.755 0.202 0.739 0.055
843 0.163 0.508 0.41 0.793
844 0.514 0.964 0.136 0.241
845 0.994 0.046 0.395 0.707
846 0.198 0.376 0.982 0.544
847 0.32 0.815 0.594 0.753
848 0.59 0.508 0.34 0.329
849 0.784 0.492 0.071 0.194
850 0.595 0.708 0.249 0.731
851 0.59 0.725 0.996 0.985
852 0.336 0.183 0.808 0.318
853 0.919 0.638 0.542 0.513
854 0.68 0.103 0.899 0.02
855 0.462 0.805 0.924 0.533
856 0.209 0.128 0.707 0.459
857 0.656 0.049 0.584 0.652
858 0.015 0.988 0.218 0.823
859 0.945 0.742 0.944 0.487
860 0.335 0.167 0.358 0.234
861 0.79 0.696 0.992 0.714
862 0.991 0.923 0.357 0.698
863 0.216 0.354 0.431 0.8
864 0.465 0.815 0.994 0.683
865 0.3 0.628 0.38 0.244
866 0.635 0.579 0.282 0.993
867 0.469 0.783 0.508 0.462
868 0.737 0.453 0.42 0.094
869 0.803 0.31 0.505 0.234
870 0.512 0.699 0.926 0.506
871 0.564 0.806 0.01 0.945
872 0.124 0.58 0.63 0.406
873 0.442 0.876 0.356 0.951
874 0.852 0.688 0.79 0.273
875 0.941 0.075 0.092 0.446
876 0.202 0.958 0.008 0.128
877 0.39 0.692 0.27 0.4
878 0.321 0.524 0.217 0.951
879 0.79 0.393 0.806 0.146
880 0.143 0.998 0.031 0.933
881 0.813 0.874 0.346 0.904
882 0.655 0.107 0.279 0.663
883 0.743 0.054 0.927 0.013
884 0.563 0.334 0.978 0.78
885 0.909 0.57 0.678 0.715
886 0.021 0.858 0.714 0.052
887 0.985 0.865 0.666 0.331
888 0.986 0.986 0.876 0.265
889 0.111 0.008 0.703 0.037
890 0.157 0.6 0.355 0.136
891 0.64 0.044 0.951 0.318
892 0.667 0.339 0.617 0.381
893 0.409 0.366 0.257 0.074
894 0.026 0.061 0.682 0.902
895 0.331 0.013 0.334 0.034
896 0.355 0.191 0.65 0.71
897 0.031 0.35 0.371 0.982
898 0.131 0.649 0.007 0.748
899 0.399 0.157 0.396 0.655
900 0.092 0.682 0.292 0.775
901 0.618 0.106 0.597 0.952
902 0.646 0.307 0.332 0.297
903 0.659 0.328 0.368 0.03
904 0.036 0.161 0.959 0.043
905 0.989 0.442 0.065 0.385
906 0.296 0.477 0.779 0.588
907 0.363 0.206 0.358 0.96
908 0.498 0.606 0.465 0.83
909 0.482 0.488 0.23 0.85
910 0.54 0.886 0.679 0.498
911 0.587 0.487 0.371 0.652
912 0.469 0.948 0.349 0.248
913 0.6 0.611 0.742 0.958
914 0.899 0.456 0.177 0.364
915 0.079 0.846 0.774 0.309
916 0.292 0.849 0.581 0.971
917 0.51 0.558 0.834 0.881
918 0.706 0.35 0.159 0.055
919 0.695 0.655 0.209 0.437
920 0.78 0.336 0.069 0.957
921 0.355 0.037 0.546 0.128
922 0.241 0.42 0.195 0.822
923 0.542 0.332 0.95 0.376
924 0.161 0.082 0.563 0.32
925 0.161 0.015 0.793 0.37
926 0.406 0.151 0.788 0.475
927 0.488 0.829 0.144 0.033
928 0.49 0.274 0.378 0.685
929 0.769 0.227 0.428 0.719
930 0.641 0.88 0.686 0.204
931 0.823 0.365 0.215 0.616
932 0.667 0.022 0.886 0.455
933 0.994 0.943 0.326 0.138
934 0.284 0.629 0.251 0.662
935 0.347 0.432 0.542 0.775
936 0.145 0.416 0.031 0.832
937 0.231 0.655 0.985 0.446
938 0.72 0.113 0.293 0.606
939 0.789 0.6 0.511 0.116
940 0.488 0.399 0.368 0.739
941 0.682 0.086 0.493 0.224
942 0.644 0.369 0.277 0.675
943 0.897 0.905 0.856 0.881
944 0.127 0.602 0.464 0.419
945 0.033 0.209 0.808 0.544
946 0.547 0.032 0.724 0.915
947 0.785 0.597 0.856 0.278
948 0.717 0.922 0.189 0.993
949 0.39 0.89 0.502 0.246
950 0.854 0.372 0.373 0.318
951 0.581 0.351 0.001 0.389
952 0.325 0.936 0.926 0.049
953 0.697 0.835 0.447 0.553
954 0.267 0.269 0.035 0.457
955 0.632 0.846 0.153 0.135
956 0.924 0.989 0.464 0.297
957 0.256 0.878 0.658 0.257
958 0.552 0.582 0.203 0.478
959 0.054 0.175 0.465 0.501
960 0.578 0.769 0.997 0.614
961 0.26 0.246 0.072 0.413
962 0.164 0.337 0.37 0.628
963 0.677 0.884 0.512 0.334
964 0.779 0.886 0.722 0.982
965 0.353 0.036 0.54 0.819
966 0.267 0.397 0.306 0.264
967 0.531 0.524 0.257 0.602
968 0.638 0.766 0.274 0.008
969 0.908 0.684 0.278 0.421
970 0.419 0.2 0.904 0.141
971 0.269 0.495 0.218 0.808
972 0.755 0.076 0.71 0.06
973 0.721 0.591 0.864 0.978
974 0.802 0.616 0.959 0.076
975 0.353 0.985 0.308 0.631
976 0.326 0.05 0.605 0.23
977 0.787 0.499 0.686 0.004
978 0.999 0.759 0.383 0.71
979 0.723 0.431 0.41 0.587
980 0.604 0.389 0.025 0.563
981 0.649 0.917 0.45 0.956
982 0.855 0.282 0.598 0.459
983 0.79 0.246 0.01 0.476
984 0.318 0.475 0.009 0.7
985 0.829 0.423 0.616 0.239
986 0.025 0.843 0.399 0.05
987 0.864 0.699 0.323 0.314
988 0.871 0.169 0.937 0.469
989 0.448 0.259 0.874 0.459
990 0.124 0.776 0.21 0.134
991 0.395 0.962 0.9 0.011
992 0.91 0.036 0.045 0.309
993 0.451 0.174 0.784 0.774
994 0.439 0.644 0.657 0.376
995 0.285 0.824 0.372 0.159
996 0.106 0.283 0.059 0.316
997 0.535 0.711 0.379 0.435
998 0.581 0.345 0.757 0.626
999 0.843 0.077 0.828 0.627
1000 0.316 0.067 0.494 0.973
;

